<?xml version="1.0"?>
<VTKFile type="UnstructuredGrid" version="2.2">
  <UnstructuredGrid>
    <Piece NumberOfPoints="306" NumberOfCells="536">
      <Points>
        <DataArray type="Float64" NumberOfComponents="3" format="ascii">0.8999999999997368 0 0 1 0 0 0.9267084444553141 0.07329155554456207 0 1 0.0999999999997993 0 0.8405577082800334 0.09537234672688914 0 0.918655253852327 0.1547565996949403 0 0.7999999999994734 0 0 1 0.1999999999996293 0 0.7434682632402785 0.08115158773433881 0 0.828537009271995 0.21299740854303 0 0.9152047797300289 0.2599601469179088 0 0.69999999999921 0 0 0.7676100611757157 0.1536005237776189 0 1 0.2999999999994072 0 0.6481106516471566 0.0806358280551665 0 0.6905873661141808 0.1538243214496581 0 0.7348999589720908 0.2246569544341786 0 0.8467425112355539 0.2859250601993118 0 0.9442192488128467 0.3503697658017553 0 0.5999999999989468 0 0 0.7756087490121851 0.3118765527706136 0 0.8711106039099576 0.3538803785547479 0 1 0.3999999999991157 0 0.5500419677293371 0.08345426881634563 0 0.5974897072319713 0.1496582136560197 0 0.6391845610035884 0.2189442252938424 0 0.6766984185653897 0.3047445787372188 0 0.9075155496128966 0.4432619360594272 0 0.4999999999986943 0 0 0.7091182405636749 0.3956802731694871 0 0.8036488902378862 0.4198324825606311 0 1 0.4999999999988242 0 0.4513835096789947 0.07721636231828889 0 0.500118580131082 0.1447517401629001 0 0.5443685634930924 0.2120927732961496 0 0.5831550400919083 0.2940988768368914 0 0.6178329117992065 0.3809166183608146 0 0.7323398769532097 0.4907936806558669 0 0.6471448638024462 0.4687540951907634 0 0.9144236213650555 0.5517773642747659 0 0.823690802856883 0.5161448476096415 0 0.3999999999989749 0 0 0.671694397382927 0.5560854428893103 0 1 0.5999999999985328 0 0.3487356256810197 0.09114159977964574 0 0.4124314024049232 0.1427323682075249 0 0.4500902045175055 0.2028915136412126 0 0.4903798163852889 0.2852509042309608 0 0.5275821232698055 0.3696520820145662 0 0.5616100157551218 0.4534178347809711 0 0.7519831866546128 0.5784853424443224 0 0.5916032876724517 0.5383382568396466 0 0.9184990715096726 0.6505215348581941 0 0.8370192264078199 0.6081501113612162 0 0.2999999999992664 0 0 0.6896023848673282 0.6393556598674505 0 0.6152252436018472 0.6188243794520829 0 1 0.6999999999982413 0 0.247346955383199 0.0869819579954295 0 0.3562476756445897 0.1936063392505611 0 0.3977747434283215 0.2777366316220463 0 0.4374704829979296 0.3615496366866282 0 0.4752975083245443 0.4446669598851066 0 0.5102831302415489 0.5245835314710403 0 0.7694797592959777 0.6644657681490074 0 0.5417537559401313 0.6028474482514569 0 0.919575187322995 0.7518100250108317 0 0.8428903982427327 0.6978998872278595 0 0.1999999999995579 0 0 0.2642297329821926 0.1836318947580956 0 0.7055420084500985 0.720034715678854 0 0.6258703122006467 0.6961221862733171 0 0.5667220140057173 0.6660487750187194 0 1 0.7999999999979498 0 0.1485495165996741 0.08246976104913703 0 0.1752207487577596 0.1696044265356418 0 0.3037848779041672 0.2706989556200705 0 0.3492646545572947 0.353064233029361 0 0.3894723195476634 0.4356365134679268 0 0.4254729550011209 0.517181471569983 0 0.4644148847356044 0.5947066827779673 0 0.7761217474050892 0.7379096953633607 0 0.50000000010885 0.6710552300961824 0 0.5530391108352034 0.7370354343780721 0 0.6397813117439836 0.7741706341102581 0 0.915054055434994 0.8518811762968055 0 0.8223162129816921 0.800980736670952 0 0.09999999999981467 0 0 0.2058349148921878 0.2616419733454727 0 0.7243259587995583 0.7964865103888081 0 0.5765366867247765 0.8152240936020245 0 1 0.8999999999976585 0 0.07320508075713326 0.07320508075729437 0 0.08453734567586091 0.1493491542450158 0 0.1008260270134434 0.2535518178207004 0 0.2518492279414695 0.3557393633668401 0 0.3178095094356798 0.4207820474392379 0 0.3330354090028066 0.5114103287082659 0 0.3803741400881685 0.5884379830745436 0 0.4190875102960816 0.6632167286375762 0 0.4628381078662192 0.7357189555788193 0 0.6414213565088243 0.8585786440342053 0 0.5 0.8 0 0.9167667619643325 0.9486687888031526 0 0.8311883079870145 0.9023900923537702 0 0 0 0 0.1605705860713144 0.3264859254373445 0 0.7445697828091224 0.8730777957577298 0 1 0.9999999999973885 0 0 0.100000000000416 0 0 0.200000000000832 0 0.08384455650125984 0.355198795685872 0 0.1672684407741253 0.4091344405511968 0 0.250313425962682 0.459409739803453 0 0.2980620821372656 0.6118307695493872 0 0.3565871028489062 0.6500502247672387 0 0.3849994893425133 0.7223642067049899 0 0.42346331369024 0.8152240934301189 0 0.9175431374145725 1.044742969450524 0 0.8368150709494141 0.992998494722769 0 0.7586706679046337 0.9485472050943738 0 0 0.3000000000012482 0 0.2518608821443553 0.5400248990666056 0 0.6847759065130513 0.9234633135530412 0 1 1.09999999999763 0 0 0.4000000000016644 0 0.08355276002135251 0.4515311808043361 0 0.1698641313554941 0.5149893985127563 0 0.2080293622635284 0.6024842587591657 0 0.3151064425960345 0.7035502641687911 0 0.3393524658189327 0.7862912838855047 0 0.9095642280631195 1.145464901083549 0 0.8455475289861771 1.068746289096201 0 0.7620555741452723 1.052125250745611 0 0.7 1 0 0.2344707758152875 0.6856413957162163 0 0.3585786441024883 0.8585786434228927 0 1 1.199999999997894 0 0 0.5000000000020806 0 0.07648222538196553 0.5504521475278862 0 0.1350523295590331 0.5981070173548538 0 0.1519172096113537 0.6736602505813301 0 0.2643867358368605 0.7661068596270635 0 0.2807095966054171 0.8534748363941702 0 0.9133974596213282 1.249999999998025 0 0.8071788447474233 1.127989122647119 0 0.6847759064779986 1.076536686531584 0 0.1857849804433579 0.7517180848085455 0 0.3152240935825789 0.9234633133221692 0 1 1.299999999998157 0 0.8474158903487021 1.185669653369367 0 0.7192904032686427 1.146525163471855 0 0 0.6000000000024965 0 0.06896871918282363 0.6489490313931308 0 0.0866025403788041 0.7500000000031208 0 0.2270119414459927 0.8176138770405299 0 0.2379444259175198 0.9478747491497386 0 0.9310252360825242 1.351060627125547 0 0.814213750462782 1.248282516740422 0 0.7729880583037992 1.182386122807035 0 0.6414213558300076 1.141421356644611 0 0.1525840171452283 0.8143303903659591 0 0.1928211551653523 0.8720108773590927 0 0.3 1 0 1 1.39999999999842 0 0.8480751762389456 1.326343359543372 0 0.7356132640424211 1.233893140155471 0 0.660647534142619 1.213708716010883 0 0 0.7000000000029127 0 0.09043577193250153 0.8545350989097977 0 0.2413293322401851 1.051452794566219 0 0.1544524709107128 0.9312537108601534 0 0.9233860619024206 1.449766867630864 0 0.8648589798567287 1.401924877406354 0 0.7655292241131187 1.314358603976294 0 0.5765366864111861 1.184775906527869 0 0 0.8000000000033287 0 0.3152240933101405 1.076536686020106 0 0.1631849291061533 1.007001505104531 0 1 1.499999999998683 0 0.7919249530764404 1.397537402955765 0 0.6848935573939051 1.296449735644108 0 0.6150005107248373 1.277635793254667 0 0 0.9000000000037447 0 0.2554302172100138 1.126922203940268 0 0.1688116921475924 1.097609907331036 0 0.08245686261475696 0.9552570305148569 0 0.9162018701991445 1.5484860449016 0 0.8298834719833132 1.484916129776222 0 0.7019282658849456 1.38816179258511 0 0.5371618921785037 1.264281044412616 0 0.3585786434919389 1.141421355966558 0 0.0832332380862537 1.05133121108407 0 1 1.599999999998947 0 0.7480316899432001 1.459934551457872 0 0.6434123948242646 1.34994938799301 0 0.5 1.2 0 0.5809124898265692 1.336783271374584 0 0 1.000000000004117 0 0.2756740411945797 1.203513489523474 0 0.1776837870472877 1.199019263236279 0 0.08494594464901953 1.148118823546409 0 0.915896000878176 1.644889778177609 0 0.8324409235120191 1.590693614056373 0 0.7495247319552357 1.54051982460419 0 0.6668970268160659 1.488537607368076 0 0.4469608891365944 1.262964565660847 0 0.4999999999239479 1.328944769942908 0 0.3602186881317387 1.225829365924665 0 0 1.100000000003467 0 1 1.69999999999921 0 0.6196258600976218 1.411562016988249 0 0.4234633131866277 1.184775906361278 0 0.5355851153713387 1.405293317317246 0 0.2944579913736145 1.27996528444209 0 0.2238782525176985 1.262090304653989 0 0.08042481273788898 1.248189974950938 0 0 1.200000000002774 0 0.9006103116983535 1.746764120372121 0 0.8392151858926732 1.673210480286885 0 0.74790579715239 1.644098790324001 0 0.6820750094901049 1.579275666662868 0 0.5745270451709429 1.482818528571017 0 0.4332779822498293 1.333951223286357 0 0.45824624410274 1.397152551881108 0 0.3741296877426141 1.303877813852231 0 0.1571096015302471 1.302100113462453 0 1 1.799999999999474 0 0.6105084337890491 1.564373105703787 0 0.4897168698661449 1.475416468704271 0 0.3103976150450273 1.36064434033815 0 0.2305202405786848 1.335534232083991 0 0 1.30000000000208 0 0.08150092846161942 1.349478465233251 0 0.9197334051072605 1.851832368287982 0 0.794754300220022 1.738754933301813 0 0.6507112337466741 1.646947817242272 0 0.524702491844976 1.55533304033394 0 0.3847747197373334 1.381175603034477 0 0.4083964045662397 1.46166159482439 0 0.1629807711370134 1.391849895202835 0 1 1.899999999999737 0 0.8270955652323969 1.830235965549781 0 0.6962062209692881 1.729326563639053 0 0.5625263094223897 1.63845196672321 0 0.4383906838717036 1.546581859948819 0 0.3283056025956705 1.443914557365886 0 0.2480168132555889 1.421514657860306 0 0 1.400000000001387 0 0.08557637863910647 1.448222635732765 0 0.9273790762772566 1.927379076277298 0 0.8537840203778918 1.91716948887053 0 0.7387058461438462 1.815533081837931 0 0.6022207035684635 1.722265644181595 0 0.4724170447165841 1.630347677793813 0 0.3528525898992705 1.531245319339757 0 0.1763091771213131 1.48385520584716 0 1 2 0 0.7533307409967183 1.913194168916686 0 0.6437523247093816 1.806393661031132 0 0.5096182081853526 1.714749264133497 0 0.3821619967362254 1.619082703260351 0 0.2676601230278811 1.509206319693721 0 0 1.500000000000693 0 0.09248433052293854 1.556738383259781 0 0.8999999999995836 2 0 0.7999999999999998 2 0 0.6512638582095686 1.90886962218781 0 0.5499095125365013 1.797108592691058 0 0.4168402538289733 1.705900048100488 0 0.2908708734752363 1.604317196856144 0 0.1963434369557107 1.580166207477251 0 0.7000000000006934 2 0 0.587568543086761 1.857268593274598 0 0.4556300694672183 1.787907349340308 0 0.3232867570301445 1.695255501179829 0 0 1.6 0 0.1288977030225746 1.646141251567142 0 0.6000000000013869 2 0 0.5486166756003334 1.922785345332367 0 0.4998812822888791 1.855248412712053 0 0.3608053390357019 1.781058719878419 0 0.2243442351968613 1.688111329580128 0 0.05579547881888156 1.649656467244126 0 0.4025093045363888 1.850341743337508 0 0.2650671456471308 1.775353955086479 0 0 1.699999999999306 0 0.08507538072780149 1.740521788003878 0 0.1527899720050698 1.715050764507222 0 0.5000000000020587 2 0 0.449959659367409 1.916544754542058 0 0.3103538790727857 1.846896885375451 0 0.1711461599307027 1.789207946358937 0 0.3519886295869075 1.91941417997921 0 0.2326921648605501 1.846880355848549 0 0 1.799999999999167 0 0.4000000000016644 2 0 0.2573129293400127 1.919303098544154 0 0.1595807103121183 1.903639893877724 0 0.08354994666608555 1.848600797892286 0 0.3000000000012483 2 0 0 1.899999999999584 0 0.2000000000008322 2 0 0.07320508075716153 1.926794919242838 0 0.100000000000416 2 0 0 2 0 </DataArray>
      </Points>
      <Cells>
        <DataArray type="Int32" Name="connectivity" format="ascii">0 1 2 1 3 2 4 0 2 3 5 2 6 0 4 5 4 2 3 7 5 8 6 4 4 5 9 7 10 5 11 6 8 8 4 12 4 9 12 5 10 9 7 13 10 11 8 14 15 8 12 9 16 12 9 10 17 10 13 18 19 11 14 14 8 15 16 15 12 20 16 9 10 21 17 20 9 17 13 22 18 21 10 18 23 19 14 14 15 24 16 25 15 26 16 20 21 20 17 22 27 18 27 21 18 28 19 23 23 14 24 15 25 24 26 25 16 26 20 29 30 20 21 20 30 29 22 31 27 27 30 21 28 23 32 23 24 33 25 34 24 35 25 26 26 29 36 30 37 29 29 37 38 27 31 39 27 40 30 41 28 32 32 23 33 24 34 33 35 34 25 35 26 36 36 29 38 40 37 30 37 42 38 31 43 39 40 27 39 44 41 32 32 33 45 34 46 33 47 34 35 48 35 36 49 36 38 50 37 40 50 42 37 38 42 51 43 52 39 40 39 53 54 41 44 44 32 45 33 46 45 47 46 34 47 35 48 49 48 36 49 38 51 50 40 53 50 55 42 51 42 56 43 57 52 39 52 53 54 44 58 59 44 45 46 59 45 47 60 46 61 47 48 49 62 48 63 49 51 64 50 53 64 55 50 42 55 56 65 51 56 52 57 66 53 52 67 68 54 58 44 69 58 69 44 59 46 60 59 61 60 47 62 61 48 63 62 49 65 63 51 64 53 67 70 55 64 55 71 56 65 56 72 56 71 72 57 73 66 52 66 67 68 58 74 58 69 75 76 69 59 60 76 59 61 77 60 62 78 61 63 79 62 65 80 63 81 64 67 70 71 55 70 64 81 82 65 72 71 83 72 84 83 71 73 85 66 66 86 67 87 68 74 74 58 75 69 88 75 76 88 69 60 77 76 61 78 77 62 79 78 63 80 79 82 80 65 86 81 67 84 71 70 70 81 89 83 82 72 84 90 83 73 91 85 66 85 86 87 74 92 93 74 75 88 94 75 76 95 88 76 77 95 77 78 96 78 79 97 79 80 98 82 99 80 89 81 86 84 70 89 83 100 82 101 90 84 90 102 83 85 91 103 85 104 86 105 87 92 74 93 92 94 93 75 94 88 106 88 95 106 95 77 96 78 97 96 97 79 98 80 99 98 82 100 99 107 89 86 101 84 89 102 100 83 91 108 103 104 85 103 104 107 86 109 105 92 93 109 92 110 93 94 111 94 106 95 112 106 113 95 96 97 113 96 114 97 98 98 99 115 99 100 116 107 101 89 102 117 100 108 118 103 119 104 103 120 107 104 110 109 93 121 110 94 111 121 94 112 111 106 112 95 113 113 97 122 97 114 122 114 98 115 99 116 115 100 117 116 123 101 107 108 124 118 118 119 103 119 120 104 120 123 107 125 121 111 126 111 112 127 112 113 127 113 122 114 128 122 129 114 115 116 129 115 117 130 116 118 124 131 119 118 132 133 120 119 134 123 120 125 111 126 127 126 112 128 127 122 114 135 128 129 135 114 130 129 116 117 136 130 124 137 131 118 131 132 133 119 132 134 120 133 138 125 126 139 126 127 127 128 140 128 135 141 129 142 135 130 142 129 136 143 130 137 144 131 131 145 132 145 133 132 146 134 133 139 138 126 139 127 140 128 141 140 141 135 147 135 142 147 130 143 142 136 148 143 137 149 144 131 144 150 145 131 150 151 133 145 151 146 133 152 138 139 153 139 140 141 153 140 154 141 147 147 142 155 142 143 155 143 148 156 144 149 157 144 158 150 145 150 159 151 145 159 160 146 151 152 139 153 141 154 153 154 147 161 161 147 155 143 162 155 148 163 156 143 156 162 149 164 157 165 144 157 144 165 158 150 158 159 166 151 159 160 151 167 168 152 153 154 168 153 169 154 161 162 161 155 163 170 156 162 156 171 164 172 157 165 157 173 165 174 158 158 166 159 167 151 166 175 160 167 176 168 154 176 154 169 162 169 161 163 177 170 156 170 178 156 178 171 169 162 171 164 179 172 157 172 173 180 165 173 180 174 165 174 166 158 167 166 181 175 167 182 183 176 169 170 177 184 178 170 185 178 186 171 186 169 171 172 179 187 172 188 173 188 180 173 189 174 180 181 166 174 167 181 182 190 175 182 186 183 169 177 191 184 170 184 185 178 185 192 186 178 192 179 193 187 172 187 188 180 188 194 181 174 189 189 180 194 182 181 195 196 175 190 197 190 182 198 183 186 184 191 199 185 184 200 185 201 192 198 186 192 193 202 187 188 187 203 188 204 194 181 189 195 205 189 194 197 182 195 196 190 206 207 190 197 191 208 199 184 199 200 201 185 200 201 209 192 209 198 192 193 210 202 187 202 203 188 203 204 204 205 194 189 211 195 189 205 211 211 197 195 212 196 206 206 190 207 207 197 213 191 212 208 208 214 199 199 215 200 216 201 200 217 209 201 202 210 218 203 202 219 203 220 204 205 204 221 205 222 211 213 197 211 208 212 206 206 207 223 207 213 224 208 225 214 214 215 199 200 215 226 217 201 216 216 200 226 210 227 218 202 218 219 220 203 219 204 220 221 228 205 221 228 222 205 222 213 211 208 206 225 225 206 223 207 224 223 224 213 229 214 225 230 214 231 215 215 231 226 232 217 216 233 216 226 218 227 234 218 235 219 235 220 219 220 236 221 236 228 221 237 222 228 229 213 222 238 225 223 224 238 223 224 229 239 230 225 238 214 230 231 231 240 226 233 232 216 240 233 226 227 241 234 242 218 234 235 218 242 243 220 235 243 236 220 244 228 236 229 222 237 237 228 244 224 239 238 229 245 239 246 230 238 231 230 247 231 247 240 248 232 233 249 233 240 234 241 250 251 242 234 252 235 242 243 235 252 253 236 243 244 236 253 229 237 245 237 244 254 239 246 238 245 255 239 247 230 246 247 256 240 248 233 249 256 249 240 241 257 250 251 234 250 251 258 242 258 252 242 243 252 259 253 243 259 244 253 260 245 237 254 244 260 254 255 246 239 245 261 255 247 246 262 247 262 256 263 248 249 256 264 249 257 265 250 265 251 250 251 266 258 267 252 258 252 267 259 268 253 259 260 253 268 245 254 261 260 269 254 262 246 255 261 270 255 256 262 271 264 263 249 264 256 271 265 266 251 266 272 258 272 267 258 259 267 273 268 259 273 260 268 274 254 269 261 260 274 269 270 262 255 275 270 261 271 262 270 276 263 264 264 271 277 272 278 267 267 279 273 280 268 273 274 268 280 269 275 261 269 274 281 275 282 270 282 271 270 276 264 283 264 277 283 271 282 277 267 278 279 279 280 273 284 274 280 269 281 275 281 274 284 275 285 282 286 276 283 277 287 283 277 282 288 278 289 279 279 290 280 290 284 280 275 281 285 291 281 284 282 285 292 287 286 283 287 277 288 282 292 288 289 290 279 290 293 284 285 281 291 293 291 284 292 285 294 295 286 287 292 287 288 289 296 290 290 296 293 285 291 294 293 297 291 298 292 294 295 287 299 299 287 292 296 300 293 291 297 294 300 297 293 299 292 298 297 298 294 301 295 299 300 302 297 299 298 303 297 302 298 301 299 303 298 304 303 302 304 298 305 301 303 304 305 303 </DataArray>
        <DataArray type="Int32" Name="offsets" format="ascii">3 6 9 12 15 18 21 24 27 30 33 36 39 42 45 48 51 54 57 60 63 66 69 72 75 78 81 84 87 90 93 96 99 102 105 108 111 114 117 120 123 126 129 132 135 138 141 144 147 150 153 156 159 162 165 168 171 174 177 180 183 186 189 192 195 198 201 204 207 210 213 216 219 222 225 228 231 234 237 240 243 246 249 252 255 258 261 264 267 270 273 276 279 282 285 288 291 294 297 300 303 306 309 312 315 318 321 324 327 330 333 336 339 342 345 348 351 354 357 360 363 366 369 372 375 378 381 384 387 390 393 396 399 402 405 408 411 414 417 420 423 426 429 432 435 438 441 444 447 450 453 456 459 462 465 468 471 474 477 480 483 486 489 492 495 498 501 504 507 510 513 516 519 522 525 528 531 534 537 540 543 546 549 552 555 558 561 564 567 570 573 576 579 582 585 588 591 594 597 600 603 606 609 612 615 618 621 624 627 630 633 636 639 642 645 648 651 654 657 660 663 666 669 672 675 678 681 684 687 690 693 696 699 702 705 708 711 714 717 720 723 726 729 732 735 738 741 744 747 750 753 756 759 762 765 768 771 774 777 780 783 786 789 792 795 798 801 804 807 810 813 816 819 822 825 828 831 834 837 840 843 846 849 852 855 858 861 864 867 870 873 876 879 882 885 888 891 894 897 900 903 906 909 912 915 918 921 924 927 930 933 936 939 942 945 948 951 954 957 960 963 966 969 972 975 978 981 984 987 990 993 996 999 1002 1005 1008 1011 1014 1017 1020 1023 1026 1029 1032 1035 1038 1041 1044 1047 1050 1053 1056 1059 1062 1065 1068 1071 1074 1077 1080 1083 1086 1089 1092 1095 1098 1101 1104 1107 1110 1113 1116 1119 1122 1125 1128 1131 1134 1137 1140 1143 1146 1149 1152 1155 1158 1161 1164 1167 1170 1173 1176 1179 1182 1185 1188 1191 1194 1197 1200 1203 1206 1209 1212 1215 1218 1221 1224 1227 1230 1233 1236 1239 1242 1245 1248 1251 1254 1257 1260 1263 1266 1269 1272 1275 1278 1281 1284 1287 1290 1293 1296 1299 1302 1305 1308 1311 1314 1317 1320 1323 1326 1329 1332 1335 1338 1341 1344 1347 1350 1353 1356 1359 1362 1365 1368 1371 1374 1377 1380 1383 1386 1389 1392 1395 1398 1401 1404 1407 1410 1413 1416 1419 1422 1425 1428 1431 1434 1437 1440 1443 1446 1449 1452 1455 1458 1461 1464 1467 1470 1473 1476 1479 1482 1485 1488 1491 1494 1497 1500 1503 1506 1509 1512 1515 1518 1521 1524 1527 1530 1533 1536 1539 1542 1545 1548 1551 1554 1557 1560 1563 1566 1569 1572 1575 1578 1581 1584 1587 1590 1593 1596 1599 1602 1605 1608 </DataArray>
        <DataArray type="Int8" Name="types" format="ascii">69 69 69 69 69 69 69 69 69 69 69 69 69 69 69 69 69 69 69 69 69 69 69 69 69 69 69 69 69 69 69 69 69 69 69 69 69 69 69 69 69 69 69 69 69 69 69 69 69 69 69 69 69 69 69 69 69 69 69 69 69 69 69 69 69 69 69 69 69 69 69 69 69 69 69 69 69 69 69 69 69 69 69 69 69 69 69 69 69 69 69 69 69 69 69 69 69 69 69 69 69 69 69 69 69 69 69 69 69 69 69 69 69 69 69 69 69 69 69 69 69 69 69 69 69 69 69 69 69 69 69 69 69 69 69 69 69 69 69 69 69 69 69 69 69 69 69 69 69 69 69 69 69 69 69 69 69 69 69 69 69 69 69 69 69 69 69 69 69 69 69 69 69 69 69 69 69 69 69 69 69 69 69 69 69 69 69 69 69 69 69 69 69 69 69 69 69 69 69 69 69 69 69 69 69 69 69 69 69 69 69 69 69 69 69 69 69 69 69 69 69 69 69 69 69 69 69 69 69 69 69 69 69 69 69 69 69 69 69 69 69 69 69 69 69 69 69 69 69 69 69 69 69 69 69 69 69 69 69 69 69 69 69 69 69 69 69 69 69 69 69 69 69 69 69 69 69 69 69 69 69 69 69 69 69 69 69 69 69 69 69 69 69 69 69 69 69 69 69 69 69 69 69 69 69 69 69 69 69 69 69 69 69 69 69 69 69 69 69 69 69 69 69 69 69 69 69 69 69 69 69 69 69 69 69 69 69 69 69 69 69 69 69 69 69 69 69 69 69 69 69 69 69 69 69 69 69 69 69 69 69 69 69 69 69 69 69 69 69 69 69 69 69 69 69 69 69 69 69 69 69 69 69 69 69 69 69 69 69 69 69 69 69 69 69 69 69 69 69 69 69 69 69 69 69 69 69 69 69 69 69 69 69 69 69 69 69 69 69 69 69 69 69 69 69 69 69 69 69 69 69 69 69 69 69 69 69 69 69 69 69 69 69 69 69 69 69 69 69 69 69 69 69 69 69 69 69 69 69 69 69 69 69 69 69 69 69 69 69 69 69 69 69 69 69 69 69 69 69 69 69 69 69 69 69 69 69 69 69 69 69 69 69 69 69 69 69 69 69 69 69 69 69 69 69 69 69 69 69 69 69 69 69 69 69 69 69 69 69 69 69 69 69 69 69 69 69 69 69 69 69 69 69 69 69 69 </DataArray>
      </Cells>
      <CellData Scalars="Stress">
        <DataArray type="UInt8" Name="vtkGhostType" format="ascii" RangeMin="0" RangeMax="1">0 0 0 0 0 0 0 0 0 0 0 0 0 0 0 0 0 0 0 0 0 0 0 0 0 0 0 0 0 0 0 0 0 0 0 0 0 0 0 0 0 0 0 0 0 0 0 0 0 0 0 0 0 0 0 0 0 0 0 0 0 0 0 0 0 0 0 0 0 0 0 0 0 0 0 0 0 0 0 0 0 0 0 0 0 0 0 0 0 0 0 0 0 0 0 0 0 0 0 0 0 0 0 0 0 0 0 0 0 0 0 0 0 0 0 0 0 0 0 0 0 0 0 0 0 0 0 0 0 0 0 0 0 0 0 0 0 0 0 0 0 0 0 0 0 0 0 0 0 0 0 0 0 0 0 0 0 0 0 0 0 0 0 0 0 0 0 0 0 0 0 0 0 0 0 0 0 0 0 0 0 0 0 0 0 0 0 0 0 0 0 0 0 0 0 0 0 0 0 0 0 0 0 0 0 0 0 0 0 0 0 0 0 0 0 0 0 0 0 0 0 0 0 0 0 0 0 0 0 0 0 0 0 0 0 0 0 0 0 0 0 0 0 0 0 0 0 0 0 0 0 0 0 0 0 0 0 0 0 0 0 0 0 0 0 0 0 0 0 0 0 0 0 0 0 0 0 0 0 0 0 0 0 0 0 0 0 0 0 0 0 0 0 0 0 0 0 0 0 0 0 0 0 0 0 0 0 0 0 0 0 0 0 0 0 0 0 0 0 0 0 0 0 0 0 0 0 0 0 0 0 0 0 0 0 0 0 0 0 0 0 0 0 0 0 0 0 0 0 0 0 0 0 0 0 0 0 0 0 0 0 0 0 0 0 0 0 0 0 0 0 0 0 0 0 0 0 0 0 0 0 0 0 0 0 0 0 0 0 0 0 0 0 0 0 0 0 0 0 0 0 0 0 0 0 0 0 0 0 0 0 0 0 0 0 0 0 0 0 0 0 0 0 0 0 0 0 0 0 0 0 0 0 0 0 0 0 0 0 0 0 0 0 0 0 0 0 0 0 0 0 0 0 0 0 0 0 0 0 0 0 0 0 0 0 0 0 0 0 0 0 0 0 0 0 0 0 0 0 0 0 0 0 0 0 0 0 0 0 0 0 0 0 0 0 0 0 0 0 0 0 0 0 0 0 0 0 0 0 0 0 0 0 0 0 0 0 0 0 0 0 0 0 0 0 0 0 0 0 0 0 0 0 0 0 0 </DataArray>
        <DataArray type="Int64" IdType="1" Name="vtkOriginalCellIds" format="ascii" RangeMin="0" RangeMax="535">0 1 2 3 4 5 6 7 8 9 10 11 12 13 14 15 16 17 18 19 20 21 22 23 24 25 26 27 28 29 30 31 32 33 34 35 36 37 38 39 40 41 42 43 44 45 46 47 48 49 50 51 52 53 54 55 56 57 58 59 60 61 62 63 64 65 66 67 68 69 70 71 72 73 74 75 76 77 78 79 80 81 82 83 84 85 86 87 88 89 90 91 92 93 94 95 96 97 98 99 100 101 102 103 104 105 106 107 108 109 110 111 112 113 114 115 116 117 118 119 120 121 122 123 124 125 126 127 128 129 130 131 132 133 134 135 136 137 138 139 140 141 142 143 144 145 146 147 148 149 150 151 152 153 154 155 156 157 158 159 160 161 162 163 164 165 166 167 168 169 170 171 172 173 174 175 176 177 178 179 180 181 182 183 184 185 186 187 188 189 190 191 192 193 194 195 196 197 198 199 200 201 202 203 204 205 206 207 208 209 210 211 212 213 214 215 216 217 218 219 220 221 222 223 224 225 226 227 228 229 230 231 232 233 234 235 236 237 238 239 240 241 242 243 244 245 246 247 248 249 250 251 252 253 254 255 256 257 258 259 260 261 262 263 264 265 266 267 268 269 270 271 272 273 274 275 276 277 278 279 280 281 282 283 284 285 286 287 288 289 290 291 292 293 294 295 296 297 298 299 300 301 302 303 304 305 306 307 308 309 310 311 312 313 314 315 316 317 318 319 320 321 322 323 324 325 326 327 328 329 330 331 332 333 334 335 336 337 338 339 340 341 342 343 344 345 346 347 348 349 350 351 352 353 354 355 356 357 358 359 360 361 362 363 364 365 366 367 368 369 370 371 372 373 374 375 376 377 378 379 380 381 382 383 384 385 386 387 388 389 390 391 392 393 394 395 396 397 398 399 400 401 402 403 404 405 406 407 408 409 410 411 412 413 414 415 416 417 418 419 420 421 422 423 424 425 426 427 428 429 430 431 432 433 434 435 436 437 438 439 440 441 442 443 444 445 446 447 448 449 450 451 452 453 454 455 456 457 458 459 460 461 462 463 464 465 466 467 468 469 470 471 472 473 474 475 476 477 478 479 480 481 482 483 484 485 486 487 488 489 490 491 492 493 494 495 496 497 498 499 500 501 502 503 504 505 506 507 508 509 510 511 512 513 514 515 516 517 518 519 520 521 522 523 524 525 526 527 528 529 530 531 532 533 534 535 </DataArray>
        <DataArray type="Float64" Name="Stress" format="ascii">354.8563059120586 370.3220928298904 326.089664851658 336.4782019612967 302.950936632299 333.1038727614571 318.8545039061007 294.4946967911127 324.6712513348221 327.492369260947 278.135905607515 299.3814478682399 311.3578484111894 328.5408729141673 328.4814797767474 271.4136663019091 287.0681184440517 302.7541533614753 325.8629679166695 341.6332306372594 261.0396889992017 275.3166185876591 288.8957046276424 303.9319469300864 331.7856205896565 315.193825891331 357.7929195497933 340.4102184252162 256.5387328654159 266.6656846266237 277.4174560764613 287.3174849570722 320.5663781848588 367.018427550477 352.1470748647733 251.4875876672913 258.430288353863 266.8291022540319 274.843356825309 281.3568032208395 318.0440218323542 296.4717348894321 392.5558650944746 339.3741944531592 251.0462260785419 254.174264615244 257.8918886212653 260.1430290598308 260.2054076561035 288.717320090232 261.1406049652955 399.9243224262721 340.234292007837 251.3957807921114 252.1184132274529 253.5579669914222 254.2667348956102 252.0667994023181 248.6388984838065 310.3730241310317 248.728060879249 434.0088526783624 368.9376150706497 256.6741961281115 253.8421562805834 251.193091384877 246.2480206330065 237.3526614641639 226.2633428955496 302.6878342673021 269.4815020444032 218.2277440183823 437.0266449019622 369.5098408363197 261.5044031559249 258.0855737737191 253.5473712931859 248.0235840520349 238.0141127094405 223.894598884729 208.7066806211095 332.0285934148297 261.1809031210134 199.6991584039974 459.6415218660774 404.4395508835508 272.6445494250135 263.5313856758688 258.2802177565525 248.4978386575004 232.6304297735988 211.1374559311702 186.0406909588469 327.7374616243823 292.1153228154083 222.9130390997957 162.774045637558 452.1977124504623 401.3631374659394 279.0957859542467 281.2195339646333 274.2244529928319 257.0484031155458 241.8591957157454 220.044429264737 192.2610430569503 160.6856287552425 366.4524475603057 293.0824358658517 204.1916380281085 134.5554731973161 148.6323638095484 450.8426261848635 427.4802245667855 295.8986119215613 298.7208449758209 278.0793685264222 265.5692244635543 246.3813731861666 219.936823603602 185.1030095187227 140.9610921348839 369.1991511275479 247.7618258184386 336.6079670931849 93.86434961803374 98.47649297303137 121.1458050976631 432.4544759932478 424.9118857319987 302.9982011739799 307.2980801026547 305.2321363731485 292.5108198874398 261.6342507705807 237.5507389794859 205.0533646789375 161.7394103625397 105.3391916507052 402.0710100956497 234.1526980968799 349.1445357227349 57.87053265986901 46.66003403680876 390.8044707422077 441.8255357324489 326.8789152118152 324.7028733640223 320.0348983525628 292.4074778081235 274.3429651391504 246.5002059013729 216.2174191070753 168.2427851776555 99.27777776645037 396.5861494858619 303.7713773803068 16.18778320490828 65.24327339196769 -10.07879538819341 396.2019237472382 455.6568285008964 354.7546733976725 333.9614623480146 327.6592558388228 322.6112647096335 308.2584249977589 267.8996231046075 239.7724237578879 204.0919637825264 145.7859592838132 58.98603095264539 423.3606497016111 276.0184223618795 -18.66598937398958 328.6152769774615 445.5946662302642 465.1354911633526 370.2661975290738 337.118610658106 328.1226363327154 334.3327944784895 314.153676860295 279.2028644169998 261.774394142062 229.154949598478 172.491678321476 86.2347325677984 358.6121749573165 -14.28406284687059 367.2502784913468 460.7644660812861 507.4109241958244 319.4388739611285 328.7285190536689 340.4285990720123 334.0183847681883 302.6248622711278 271.6429621826882 261.1680053129848 218.6885781463442 155.6130271424583 37.56599388086538 375.7573234494151 327.6989955897385 430.4590709029584 519.1135892542176 515.3837461094078 356.998162375082 349.8174978465983 319.2325729458949 305.7245518461715 291.7540740514389 245.0579455446017 212.3941020183808 117.3846886093961 397.2383636945775 455.4681518738485 580.8510848705197 583.4504033738813 367.2957090511848 347.476566248373 319.7290671721717 306.8141096052771 287.5501653424403 233.9771385921357 91.78045147378045 392.5257262540462 441.7561823699942 519.1383698791767 620.3170026900849 395.0671478464636 374.1711473374637 350.665079642323 353.4876388844765 322.6610398855726 306.5464452071368 295.2141685877911 433.8456999066871 465.2337022573253 505.9215634320737 585.2618029281813 403.8892910282457 379.0426252474348 370.4579242596896 380.126500647838 369.4525316929799 346.7165798674532 350.6598957953734 451.1355573480712 442.0375691031947 454.9537095654587 486.6668860562839 488.0304519303859 434.6806424489575 414.6272037330928 408.4117841895163 414.5667180377532 396.9171501583861 396.7047259181354 488.0304234168651 452.454536035846 430.9655948117434 449.2120844251749 444.879286100909 350.6595213578803 440.0998048704392 428.1775924088815 430.9649965348756 426.7820198328563 444.8789864313319 585.261723431724 486.6667491418457 461.1580795103987 428.1761391506703 414.5658215178005 426.7822014328023 396.7051448376139 295.2136827273025 461.1605528300334 452.4556098588741 442.0370897492452 449.2117533195647 620.3168918831269 505.921396887308 440.0559681786295 408.3833128183218 380.12524199711 396.9172410398016 346.7165580802578 91.78002016639076 451.1351874912941 433.8452813876077 454.9534691084348 583.4502500641048 580.8510193636483 519.138280866409 465.2334295012969 434.640391165158 414.5460317064359 370.420696567972 353.4732464354522 369.4525286436241 306.5459408633839 117.3843942967141 392.5249534100715 515.3836038515036 519.1135036592799 455.4680214432674 441.7558948382352 403.798038844804 378.9171042881455 350.5739761908623 306.7944185920165 322.6600718727436 233.9769820898526 37.56591228898959 397.2377743700455 375.7572313176679 507.4107779951096 460.7643695501387 430.4589354338967 395.0264247201213 374.0346152012846 319.6454122212298 287.5484270743752 291.7154305111933 212.3937287520969 -14.28405291393801 86.23457519779026 327.697988899784 358.6120839794289 465.1352943021341 445.5944150578827 367.2496010875118 367.2308214041762 347.3634307831844 305.6220677377101 245.0539966934993 261.1258698700991 155.6125881782147 -18.66594674249673 58.98592550510219 276.0181743837028 423.3604959935282 455.6565433861693 396.2014831415098 328.6143846975701 356.9823111921441 349.7306311686968 319.1156774897291 271.5718436030829 218.6851108832965 229.1342368661079 172.4916046669743 -10.07872452114536 16.18776982108979 99.27760968573706 65.24334759585876 303.7712148695892 396.585968081573 441.8251996597359 390.8039175191553 340.425013773098 333.9588701886013 302.5194462632081 261.7114242022558 204.0737233063143 145.7858090547064 46.66009744345651 57.8704822102253 105.339013083207 234.1524276743934 349.1443610990386 402.0707663898885 432.4540842529422 424.9115785773585 328.6842361894567 334.3920595702999 314.0655193888481 279.1173830540926 239.7401843136197 216.1989313883625 168.2421422916878 121.1457225422061 98.47641997462622 93.86421856865911 140.9608475335927 247.7616529047271 336.6076916780742 369.1988851952772 450.8423342265797 427.479950274151 327.9301809898456 322.7355154376832 308.2663174500399 267.8441230387249 246.4822796137905 205.051834903872 161.7389370208185 148.6322058845127 134.5553108526444 160.6854301808804 204.1914384295265 293.0821940776359 366.4522049868652 452.1974518544265 401.3629351360992 318.941234512544 328.0090280850004 320.3621179339323 292.4470282816538 274.3011384506503 237.5464258197278 185.1025698320186 219.9351628569571 162.7738865927793 186.0404186816527 222.9128093656126 292.1150696602876 327.7370844355918 459.6413307074564 404.4394703588001 337.0633287830985 325.4047422325878 305.7910509597334 292.8722368236511 261.6313067775358 246.3794183664205 192.2607174569476 220.0442370621246 199.6990159256612 208.7068168639479 261.180610069278 332.0281958475169 437.0265230216501 369.5097273314772 370.4387525711112 334.631570108064 307.8558689537296 299.3114860237721 278.3328407072303 265.5756017724871 241.859357591289 211.1373222963458 232.6304924295067 218.2280165654822 226.2641949312487 269.4810875099407 302.6873832762292 434.008805229492 368.9375615778981 354.9233419591808 327.3585937241031 296.1985446511557 281.5527894102298 274.4837414430338 257.0500675519153 248.4981163112646 223.895109369623 238.0144515498827 248.7282485853921 248.6414036374775 310.3739060634371 399.9245991098501 340.2349202405748 303.2791232953881 279.1353378826651 272.6704052119638 263.5200754559949 258.2780330649003 248.0233200186794 237.3536929603559 246.2481945938312 261.1424105307854 260.2095199875148 288.7196493777574 392.5565404145435 339.3716642146303 261.5080669203365 258.083491669155 253.5466031379077 251.1926410230055 252.0703655616877 254.266868518173 281.3656216823929 296.4782585408273 367.0161317460925 352.1406108383198 318.0492596311223 256.6738667285616 253.8417222375031 253.5577466955697 260.148949075396 257.8906975831699 287.334833655271 357.7882694563578 340.3711079282723 320.605469304956 251.3951309336103 252.1182387979192 254.1738166499185 274.8518676686269 266.7615753175205 303.9706751765799 341.5988736358772 331.75740167629 315.2460038899358 251.046061557265 258.4247198311556 277.3375620711968 266.5859912581096 302.7528162681377 328.4422602422541 325.8536378451528 251.4876844399288 256.5342753903632 288.7604946351356 275.147530840605 311.3044876932503 327.6160919030019 328.5087482463412 261.0361094095749 286.8352120671209 271.3409065597629 324.5783478659636 299.2757909047809 319.2673169764517 278.0604657761587 333.0668753982434 294.4429290720013 336.8053661908409 326.1281300137774 303.0408839383703 370.3656809802949 354.8606212682055 </DataArray>
      </CellData>
      <PointData>
        <DataArray type="Int64" IdType="1" Name="vtkOriginalPointIds" format="ascii" RangeMin="0" RangeMax="305">16 1 286 17 225 248 15 18 91 249 98 14 296 19 222 270 178 290 300 13 179 198 20 78 272 176 177 80 12 212 195 21 220 278 174 175 239 166 252 211 194 11 165 22 86 302 161 137 238 127 163 260 94 245 10 155 268 23 228 236 136 129 126 124 162 123 209 262 9 172 154 153 280 24 250 257 138 130 128 125 122 164 120 119 84 133 259 8 159 256 73 25 288 103 224 152 294 131 242 121 77 74 7 205 203 0 277 134 26 63 62 82 230 231 192 305 274 72 105 201 97 61 264 75 27 60 216 217 193 186 144 207 282 147 4 187 71 28 59 88 299 214 145 93 100 148 64 244 70 29 283 92 58 267 101 292 146 266 243 293 65 285 149 5 30 215 143 142 57 206 96 284 89 298 189 66 56 69 200 31 191 188 275 55 135 202 104 218 219 190 76 68 204 32 265 304 6 108 54 255 258 132 83 232 233 118 106 107 85 53 33 241 67 109 157 169 208 52 227 276 150 295 112 281 110 156 263 34 115 111 158 167 51 95 254 151 117 113 269 261 246 35 247 141 116 114 170 168 50 210 289 102 173 139 237 253 196 2 229 235 140 240 171 49 81 36 37 87 160 181 213 197 38 303 180 183 48 199 39 221 279 182 185 301 273 184 47 90 291 40 79 271 234 223 297 46 41 99 251 226 42 45 43 287 44 3 </DataArray>
        <DataArray type="UInt8" Name="vtkGhostType" format="ascii" RangeMin="0" RangeMax="0">0 0 0 0 0 0 0 0 0 0 0 0 0 0 0 0 0 0 0 0 0 0 0 0 0 0 0 0 0 0 0 0 0 0 0 0 0 0 0 0 0 0 0 0 0 0 0 0 0 0 0 0 0 0 0 0 0 0 0 0 0 0 0 0 0 0 0 0 0 0 0 0 0 0 0 0 0 0 0 0 0 0 0 0 0 0 0 0 0 0 0 0 0 0 0 0 0 0 0 0 0 0 0 0 0 0 0 0 0 0 0 0 0 0 0 0 0 0 0 0 0 0 0 0 0 0 0 0 0 0 0 0 0 0 0 0 0 0 0 0 0 0 0 0 0 0 0 0 0 0 0 0 0 0 0 0 0 0 0 0 0 0 0 0 0 0 0 0 0 0 0 0 0 0 0 0 0 0 0 0 0 0 0 0 0 0 0 0 0 0 0 0 0 0 0 0 0 0 0 0 0 0 0 0 0 0 0 0 0 0 0 0 0 0 0 0 0 0 0 0 0 0 0 0 0 0 0 0 0 0 0 0 0 0 0 0 0 0 0 0 0 0 0 0 0 0 0 0 0 0 0 0 0 0 0 0 0 0 0 0 0 0 0 0 0 0 0 0 0 0 0 0 0 0 0 0 0 0 0 0 0 0 0 0 0 0 0 0 0 0 0 0 0 0 0 0 0 0 0 0 0 0 0 0 0 0 </DataArray>
      </PointData>
    </Piece>
  </UnstructuredGrid>
</VTKFile>
