<?xml version="1.0"?>
<VTKFile type="UnstructuredGrid" version="2.2">
  <UnstructuredGrid>
    <Piece NumberOfPoints="306" NumberOfCells="536">
      <Points>
        <DataArray type="Float64" NumberOfComponents="3" format="ascii">0.8999999999997368 0 0 1 0 0 0.9267084444553141 0.07329155554456207 0 1 0.0999999999997993 0 0.8405577082800334 0.09537234672688914 0 0.918655253852327 0.1547565996949403 0 0.7999999999994734 0 0 1 0.1999999999996293 0 0.7434682632402785 0.08115158773433881 0 0.828537009271995 0.21299740854303 0 0.9152047797300289 0.2599601469179088 0 0.69999999999921 0 0 0.7676100611757157 0.1536005237776189 0 1 0.2999999999994072 0 0.6481106516471566 0.0806358280551665 0 0.6905873661141808 0.1538243214496581 0 0.7348999589720908 0.2246569544341786 0 0.8467425112355539 0.2859250601993118 0 0.9442192488128467 0.3503697658017553 0 0.5999999999989468 0 0 0.7756087490121851 0.3118765527706136 0 0.8711106039099576 0.3538803785547479 0 1 0.3999999999991157 0 0.5500419677293371 0.08345426881634563 0 0.5974897072319713 0.1496582136560197 0 0.6391845610035884 0.2189442252938424 0 0.6766984185653897 0.3047445787372188 0 0.9075155496128966 0.4432619360594272 0 0.4999999999986943 0 0 0.7091182405636749 0.3956802731694871 0 0.8036488902378862 0.4198324825606311 0 1 0.4999999999988242 0 0.4513835096789947 0.07721636231828889 0 0.500118580131082 0.1447517401629001 0 0.5443685634930924 0.2120927732961496 0 0.5831550400919083 0.2940988768368914 0 0.6178329117992065 0.3809166183608146 0 0.7323398769532097 0.4907936806558669 0 0.6471448638024462 0.4687540951907634 0 0.9144236213650555 0.5517773642747659 0 0.823690802856883 0.5161448476096415 0 0.3999999999989749 0 0 0.671694397382927 0.5560854428893103 0 1 0.5999999999985328 0 0.3487356256810197 0.09114159977964574 0 0.4124314024049232 0.1427323682075249 0 0.4500902045175055 0.2028915136412126 0 0.4903798163852889 0.2852509042309608 0 0.5275821232698055 0.3696520820145662 0 0.5616100157551218 0.4534178347809711 0 0.7519831866546128 0.5784853424443224 0 0.5916032876724517 0.5383382568396466 0 0.9184990715096726 0.6505215348581941 0 0.8370192264078199 0.6081501113612162 0 0.2999999999992664 0 0 0.6896023848673282 0.6393556598674505 0 0.6152252436018472 0.6188243794520829 0 1 0.6999999999982413 0 0.247346955383199 0.0869819579954295 0 0.3562476756445897 0.1936063392505611 0 0.3977747434283215 0.2777366316220463 0 0.4374704829979296 0.3615496366866282 0 0.4752975083245443 0.4446669598851066 0 0.5102831302415489 0.5245835314710403 0 0.7694797592959777 0.6644657681490074 0 0.5417537559401313 0.6028474482514569 0 0.919575187322995 0.7518100250108317 0 0.8428903982427327 0.6978998872278595 0 0.1999999999995579 0 0 0.2642297329821926 0.1836318947580956 0 0.7055420084500985 0.720034715678854 0 0.6258703122006467 0.6961221862733171 0 0.5667220140057173 0.6660487750187194 0 1 0.7999999999979498 0 0.1485495165996741 0.08246976104913703 0 0.1752207487577596 0.1696044265356418 0 0.3037848779041672 0.2706989556200705 0 0.3492646545572947 0.353064233029361 0 0.3894723195476634 0.4356365134679268 0 0.4254729550011209 0.517181471569983 0 0.4644148847356044 0.5947066827779673 0 0.7761217474050892 0.7379096953633607 0 0.50000000010885 0.6710552300961824 0 0.5530391108352034 0.7370354343780721 0 0.6397813117439836 0.7741706341102581 0 0.915054055434994 0.8518811762968055 0 0.8223162129816921 0.800980736670952 0 0.09999999999981467 0 0 0.2058349148921878 0.2616419733454727 0 0.7243259587995583 0.7964865103888081 0 0.5765366867247765 0.8152240936020245 0 1 0.8999999999976585 0 0.07320508075713326 0.07320508075729437 0 0.08453734567586091 0.1493491542450158 0 0.1008260270134434 0.2535518178207004 0 0.2518492279414695 0.3557393633668401 0 0.3178095094356798 0.4207820474392379 0 0.3330354090028066 0.5114103287082659 0 0.3803741400881685 0.5884379830745436 0 0.4190875102960816 0.6632167286375762 0 0.4628381078662192 0.7357189555788193 0 0.6414213565088243 0.8585786440342053 0 0.5 0.8 0 0.9167667619643325 0.9486687888031526 0 0.8311883079870145 0.9023900923537702 0 0 0 0 0.1605705860713144 0.3264859254373445 0 0.7445697828091224 0.8730777957577298 0 1 0.9999999999973885 0 0 0.100000000000416 0 0 0.200000000000832 0 0.08384455650125984 0.355198795685872 0 0.1672684407741253 0.4091344405511968 0 0.250313425962682 0.459409739803453 0 0.2980620821372656 0.6118307695493872 0 0.3565871028489062 0.6500502247672387 0 0.3849994893425133 0.7223642067049899 0 0.42346331369024 0.8152240934301189 0 0.9175431374145725 1.044742969450524 0 0.8368150709494141 0.992998494722769 0 0.7586706679046337 0.9485472050943738 0 0 0.3000000000012482 0 0.2518608821443553 0.5400248990666056 0 0.6847759065130513 0.9234633135530412 0 1 1.09999999999763 0 0 0.4000000000016644 0 0.08355276002135251 0.4515311808043361 0 0.1698641313554941 0.5149893985127563 0 0.2080293622635284 0.6024842587591657 0 0.3151064425960345 0.7035502641687911 0 0.3393524658189327 0.7862912838855047 0 0.9095642280631195 1.145464901083549 0 0.8455475289861771 1.068746289096201 0 0.7620555741452723 1.052125250745611 0 0.7 1 0 0.2344707758152875 0.6856413957162163 0 0.3585786441024883 0.8585786434228927 0 1 1.199999999997894 0 0 0.5000000000020806 0 0.07648222538196553 0.5504521475278862 0 0.1350523295590331 0.5981070173548538 0 0.1519172096113537 0.6736602505813301 0 0.2643867358368605 0.7661068596270635 0 0.2807095966054171 0.8534748363941702 0 0.9133974596213282 1.249999999998025 0 0.8071788447474233 1.127989122647119 0 0.6847759064779986 1.076536686531584 0 0.1857849804433579 0.7517180848085455 0 0.3152240935825789 0.9234633133221692 0 1 1.299999999998157 0 0.8474158903487021 1.185669653369367 0 0.7192904032686427 1.146525163471855 0 0 0.6000000000024965 0 0.06896871918282363 0.6489490313931308 0 0.0866025403788041 0.7500000000031208 0 0.2270119414459927 0.8176138770405299 0 0.2379444259175198 0.9478747491497386 0 0.9310252360825242 1.351060627125547 0 0.814213750462782 1.248282516740422 0 0.7729880583037992 1.182386122807035 0 0.6414213558300076 1.141421356644611 0 0.1525840171452283 0.8143303903659591 0 0.1928211551653523 0.8720108773590927 0 0.3 1 0 1 1.39999999999842 0 0.8480751762389456 1.326343359543372 0 0.7356132640424211 1.233893140155471 0 0.660647534142619 1.213708716010883 0 0 0.7000000000029127 0 0.09043577193250153 0.8545350989097977 0 0.2413293322401851 1.051452794566219 0 0.1544524709107128 0.9312537108601534 0 0.9233860619024206 1.449766867630864 0 0.8648589798567287 1.401924877406354 0 0.7655292241131187 1.314358603976294 0 0.5765366864111861 1.184775906527869 0 0 0.8000000000033287 0 0.3152240933101405 1.076536686020106 0 0.1631849291061533 1.007001505104531 0 1 1.499999999998683 0 0.7919249530764404 1.397537402955765 0 0.6848935573939051 1.296449735644108 0 0.6150005107248373 1.277635793254667 0 0 0.9000000000037447 0 0.2554302172100138 1.126922203940268 0 0.1688116921475924 1.097609907331036 0 0.08245686261475696 0.9552570305148569 0 0.9162018701991445 1.5484860449016 0 0.8298834719833132 1.484916129776222 0 0.7019282658849456 1.38816179258511 0 0.5371618921785037 1.264281044412616 0 0.3585786434919389 1.141421355966558 0 0.0832332380862537 1.05133121108407 0 1 1.599999999998947 0 0.7480316899432001 1.459934551457872 0 0.6434123948242646 1.34994938799301 0 0.5 1.2 0 0.5809124898265692 1.336783271374584 0 0 1.000000000004117 0 0.2756740411945797 1.203513489523474 0 0.1776837870472877 1.199019263236279 0 0.08494594464901953 1.148118823546409 0 0.915896000878176 1.644889778177609 0 0.8324409235120191 1.590693614056373 0 0.7495247319552357 1.54051982460419 0 0.6668970268160659 1.488537607368076 0 0.4469608891365944 1.262964565660847 0 0.4999999999239479 1.328944769942908 0 0.3602186881317387 1.225829365924665 0 0 1.100000000003467 0 1 1.69999999999921 0 0.6196258600976218 1.411562016988249 0 0.4234633131866277 1.184775906361278 0 0.5355851153713387 1.405293317317246 0 0.2944579913736145 1.27996528444209 0 0.2238782525176985 1.262090304653989 0 0.08042481273788898 1.248189974950938 0 0 1.200000000002774 0 0.9006103116983535 1.746764120372121 0 0.8392151858926732 1.673210480286885 0 0.74790579715239 1.644098790324001 0 0.6820750094901049 1.579275666662868 0 0.5745270451709429 1.482818528571017 0 0.4332779822498293 1.333951223286357 0 0.45824624410274 1.397152551881108 0 0.3741296877426141 1.303877813852231 0 0.1571096015302471 1.302100113462453 0 1 1.799999999999474 0 0.6105084337890491 1.564373105703787 0 0.4897168698661449 1.475416468704271 0 0.3103976150450273 1.36064434033815 0 0.2305202405786848 1.335534232083991 0 0 1.30000000000208 0 0.08150092846161942 1.349478465233251 0 0.9197334051072605 1.851832368287982 0 0.794754300220022 1.738754933301813 0 0.6507112337466741 1.646947817242272 0 0.524702491844976 1.55533304033394 0 0.3847747197373334 1.381175603034477 0 0.4083964045662397 1.46166159482439 0 0.1629807711370134 1.391849895202835 0 1 1.899999999999737 0 0.8270955652323969 1.830235965549781 0 0.6962062209692881 1.729326563639053 0 0.5625263094223897 1.63845196672321 0 0.4383906838717036 1.546581859948819 0 0.3283056025956705 1.443914557365886 0 0.2480168132555889 1.421514657860306 0 0 1.400000000001387 0 0.08557637863910647 1.448222635732765 0 0.9273790762772566 1.927379076277298 0 0.8537840203778918 1.91716948887053 0 0.7387058461438462 1.815533081837931 0 0.6022207035684635 1.722265644181595 0 0.4724170447165841 1.630347677793813 0 0.3528525898992705 1.531245319339757 0 0.1763091771213131 1.48385520584716 0 1 2 0 0.7533307409967183 1.913194168916686 0 0.6437523247093816 1.806393661031132 0 0.5096182081853526 1.714749264133497 0 0.3821619967362254 1.619082703260351 0 0.2676601230278811 1.509206319693721 0 0 1.500000000000693 0 0.09248433052293854 1.556738383259781 0 0.8999999999995836 2 0 0.7999999999999998 2 0 0.6512638582095686 1.90886962218781 0 0.5499095125365013 1.797108592691058 0 0.4168402538289733 1.705900048100488 0 0.2908708734752363 1.604317196856144 0 0.1963434369557107 1.580166207477251 0 0.7000000000006934 2 0 0.587568543086761 1.857268593274598 0 0.4556300694672183 1.787907349340308 0 0.3232867570301445 1.695255501179829 0 0 1.6 0 0.1288977030225746 1.646141251567142 0 0.6000000000013869 2 0 0.5486166756003334 1.922785345332367 0 0.4998812822888791 1.855248412712053 0 0.3608053390357019 1.781058719878419 0 0.2243442351968613 1.688111329580128 0 0.05579547881888156 1.649656467244126 0 0.4025093045363888 1.850341743337508 0 0.2650671456471308 1.775353955086479 0 0 1.699999999999306 0 0.08507538072780149 1.740521788003878 0 0.1527899720050698 1.715050764507222 0 0.5000000000020587 2 0 0.449959659367409 1.916544754542058 0 0.3103538790727857 1.846896885375451 0 0.1711461599307027 1.789207946358937 0 0.3519886295869075 1.91941417997921 0 0.2326921648605501 1.846880355848549 0 0 1.799999999999167 0 0.4000000000016644 2 0 0.2573129293400127 1.919303098544154 0 0.1595807103121183 1.903639893877724 0 0.08354994666608555 1.848600797892286 0 0.3000000000012483 2 0 0 1.899999999999584 0 0.2000000000008322 2 0 0.07320508075716153 1.926794919242838 0 0.100000000000416 2 0 0 2 0 </DataArray>
      </Points>
      <Cells>
        <DataArray type="Int32" Name="connectivity" format="ascii">0 1 2 1 3 2 4 0 2 3 5 2 6 0 4 5 4 2 3 7 5 8 6 4 4 5 9 7 10 5 11 6 8 8 4 12 4 9 12 5 10 9 7 13 10 11 8 14 15 8 12 9 16 12 9 10 17 10 13 18 19 11 14 14 8 15 16 15 12 20 16 9 10 21 17 20 9 17 13 22 18 21 10 18 23 19 14 14 15 24 16 25 15 26 16 20 21 20 17 22 27 18 27 21 18 28 19 23 23 14 24 15 25 24 26 25 16 26 20 29 30 20 21 20 30 29 22 31 27 27 30 21 28 23 32 23 24 33 25 34 24 35 25 26 26 29 36 30 37 29 29 37 38 27 31 39 27 40 30 41 28 32 32 23 33 24 34 33 35 34 25 35 26 36 36 29 38 40 37 30 37 42 38 31 43 39 40 27 39 44 41 32 32 33 45 34 46 33 47 34 35 48 35 36 49 36 38 50 37 40 50 42 37 38 42 51 43 52 39 40 39 53 54 41 44 44 32 45 33 46 45 47 46 34 47 35 48 49 48 36 49 38 51 50 40 53 50 55 42 51 42 56 43 57 52 39 52 53 54 44 58 59 44 45 46 59 45 47 60 46 61 47 48 49 62 48 63 49 51 64 50 53 64 55 50 42 55 56 65 51 56 52 57 66 53 52 67 68 54 58 44 69 58 69 44 59 46 60 59 61 60 47 62 61 48 63 62 49 65 63 51 64 53 67 70 55 64 55 71 56 65 56 72 56 71 72 57 73 66 52 66 67 68 58 74 58 69 75 76 69 59 60 76 59 61 77 60 62 78 61 63 79 62 65 80 63 81 64 67 70 71 55 70 64 81 82 65 72 71 83 72 84 83 71 73 85 66 66 86 67 87 68 74 74 58 75 69 88 75 76 88 69 60 77 76 61 78 77 62 79 78 63 80 79 82 80 65 86 81 67 84 71 70 70 81 89 83 82 72 84 90 83 73 91 85 66 85 86 87 74 92 93 74 75 88 94 75 76 95 88 76 77 95 77 78 96 78 79 97 79 80 98 82 99 80 89 81 86 84 70 89 83 100 82 101 90 84 90 102 83 85 91 103 85 104 86 105 87 92 74 93 92 94 93 75 94 88 106 88 95 106 95 77 96 78 97 96 97 79 98 80 99 98 82 100 99 107 89 86 101 84 89 102 100 83 91 108 103 104 85 103 104 107 86 109 105 92 93 109 92 110 93 94 111 94 106 95 112 106 113 95 96 97 113 96 114 97 98 98 99 115 99 100 116 107 101 89 102 117 100 108 118 103 119 104 103 120 107 104 110 109 93 121 110 94 111 121 94 112 111 106 112 95 113 113 97 122 97 114 122 114 98 115 99 116 115 100 117 116 123 101 107 108 124 118 118 119 103 119 120 104 120 123 107 125 121 111 126 111 112 127 112 113 127 113 122 114 128 122 129 114 115 116 129 115 117 130 116 118 124 131 119 118 132 133 120 119 134 123 120 125 111 126 127 126 112 128 127 122 114 135 128 129 135 114 130 129 116 117 136 130 124 137 131 118 131 132 133 119 132 134 120 133 138 125 126 139 126 127 127 128 140 128 135 141 129 142 135 130 142 129 136 143 130 137 144 131 131 145 132 145 133 132 146 134 133 139 138 126 139 127 140 128 141 140 141 135 147 135 142 147 130 143 142 136 148 143 137 149 144 131 144 150 145 131 150 151 133 145 151 146 133 152 138 139 153 139 140 141 153 140 154 141 147 147 142 155 142 143 155 143 148 156 144 149 157 144 158 150 145 150 159 151 145 159 160 146 151 152 139 153 141 154 153 154 147 161 161 147 155 143 162 155 148 163 156 143 156 162 149 164 157 165 144 157 144 165 158 150 158 159 166 151 159 160 151 167 168 152 153 154 168 153 169 154 161 162 161 155 163 170 156 162 156 171 164 172 157 165 157 173 165 174 158 158 166 159 167 151 166 175 160 167 176 168 154 176 154 169 162 169 161 163 177 170 156 170 178 156 178 171 169 162 171 164 179 172 157 172 173 180 165 173 180 174 165 174 166 158 167 166 181 175 167 182 183 176 169 170 177 184 178 170 185 178 186 171 186 169 171 172 179 187 172 188 173 188 180 173 189 174 180 181 166 174 167 181 182 190 175 182 186 183 169 177 191 184 170 184 185 178 185 192 186 178 192 179 193 187 172 187 188 180 188 194 181 174 189 189 180 194 182 181 195 196 175 190 197 190 182 198 183 186 184 191 199 185 184 200 185 201 192 198 186 192 193 202 187 188 187 203 188 204 194 181 189 195 205 189 194 197 182 195 196 190 206 207 190 197 191 208 199 184 199 200 201 185 200 201 209 192 209 198 192 193 210 202 187 202 203 188 203 204 204 205 194 189 211 195 189 205 211 211 197 195 212 196 206 206 190 207 207 197 213 191 212 208 208 214 199 199 215 200 216 201 200 217 209 201 202 210 218 203 202 219 203 220 204 205 204 221 205 222 211 213 197 211 208 212 206 206 207 223 207 213 224 208 225 214 214 215 199 200 215 226 217 201 216 216 200 226 210 227 218 202 218 219 220 203 219 204 220 221 228 205 221 228 222 205 222 213 211 208 206 225 225 206 223 207 224 223 224 213 229 214 225 230 214 231 215 215 231 226 232 217 216 233 216 226 218 227 234 218 235 219 235 220 219 220 236 221 236 228 221 237 222 228 229 213 222 238 225 223 224 238 223 224 229 239 230 225 238 214 230 231 231 240 226 233 232 216 240 233 226 227 241 234 242 218 234 235 218 242 243 220 235 243 236 220 244 228 236 229 222 237 237 228 244 224 239 238 229 245 239 246 230 238 231 230 247 231 247 240 248 232 233 249 233 240 234 241 250 251 242 234 252 235 242 243 235 252 253 236 243 244 236 253 229 237 245 237 244 254 239 246 238 245 255 239 247 230 246 247 256 240 248 233 249 256 249 240 241 257 250 251 234 250 251 258 242 258 252 242 243 252 259 253 243 259 244 253 260 245 237 254 244 260 254 255 246 239 245 261 255 247 246 262 247 262 256 263 248 249 256 264 249 257 265 250 265 251 250 251 266 258 267 252 258 252 267 259 268 253 259 260 253 268 245 254 261 260 269 254 262 246 255 261 270 255 256 262 271 264 263 249 264 256 271 265 266 251 266 272 258 272 267 258 259 267 273 268 259 273 260 268 274 254 269 261 260 274 269 270 262 255 275 270 261 271 262 270 276 263 264 264 271 277 272 278 267 267 279 273 280 268 273 274 268 280 269 275 261 269 274 281 275 282 270 282 271 270 276 264 283 264 277 283 271 282 277 267 278 279 279 280 273 284 274 280 269 281 275 281 274 284 275 285 282 286 276 283 277 287 283 277 282 288 278 289 279 279 290 280 290 284 280 275 281 285 291 281 284 282 285 292 287 286 283 287 277 288 282 292 288 289 290 279 290 293 284 285 281 291 293 291 284 292 285 294 295 286 287 292 287 288 289 296 290 290 296 293 285 291 294 293 297 291 298 292 294 295 287 299 299 287 292 296 300 293 291 297 294 300 297 293 299 292 298 297 298 294 301 295 299 300 302 297 299 298 303 297 302 298 301 299 303 298 304 303 302 304 298 305 301 303 304 305 303 </DataArray>
        <DataArray type="Int32" Name="offsets" format="ascii">3 6 9 12 15 18 21 24 27 30 33 36 39 42 45 48 51 54 57 60 63 66 69 72 75 78 81 84 87 90 93 96 99 102 105 108 111 114 117 120 123 126 129 132 135 138 141 144 147 150 153 156 159 162 165 168 171 174 177 180 183 186 189 192 195 198 201 204 207 210 213 216 219 222 225 228 231 234 237 240 243 246 249 252 255 258 261 264 267 270 273 276 279 282 285 288 291 294 297 300 303 306 309 312 315 318 321 324 327 330 333 336 339 342 345 348 351 354 357 360 363 366 369 372 375 378 381 384 387 390 393 396 399 402 405 408 411 414 417 420 423 426 429 432 435 438 441 444 447 450 453 456 459 462 465 468 471 474 477 480 483 486 489 492 495 498 501 504 507 510 513 516 519 522 525 528 531 534 537 540 543 546 549 552 555 558 561 564 567 570 573 576 579 582 585 588 591 594 597 600 603 606 609 612 615 618 621 624 627 630 633 636 639 642 645 648 651 654 657 660 663 666 669 672 675 678 681 684 687 690 693 696 699 702 705 708 711 714 717 720 723 726 729 732 735 738 741 744 747 750 753 756 759 762 765 768 771 774 777 780 783 786 789 792 795 798 801 804 807 810 813 816 819 822 825 828 831 834 837 840 843 846 849 852 855 858 861 864 867 870 873 876 879 882 885 888 891 894 897 900 903 906 909 912 915 918 921 924 927 930 933 936 939 942 945 948 951 954 957 960 963 966 969 972 975 978 981 984 987 990 993 996 999 1002 1005 1008 1011 1014 1017 1020 1023 1026 1029 1032 1035 1038 1041 1044 1047 1050 1053 1056 1059 1062 1065 1068 1071 1074 1077 1080 1083 1086 1089 1092 1095 1098 1101 1104 1107 1110 1113 1116 1119 1122 1125 1128 1131 1134 1137 1140 1143 1146 1149 1152 1155 1158 1161 1164 1167 1170 1173 1176 1179 1182 1185 1188 1191 1194 1197 1200 1203 1206 1209 1212 1215 1218 1221 1224 1227 1230 1233 1236 1239 1242 1245 1248 1251 1254 1257 1260 1263 1266 1269 1272 1275 1278 1281 1284 1287 1290 1293 1296 1299 1302 1305 1308 1311 1314 1317 1320 1323 1326 1329 1332 1335 1338 1341 1344 1347 1350 1353 1356 1359 1362 1365 1368 1371 1374 1377 1380 1383 1386 1389 1392 1395 1398 1401 1404 1407 1410 1413 1416 1419 1422 1425 1428 1431 1434 1437 1440 1443 1446 1449 1452 1455 1458 1461 1464 1467 1470 1473 1476 1479 1482 1485 1488 1491 1494 1497 1500 1503 1506 1509 1512 1515 1518 1521 1524 1527 1530 1533 1536 1539 1542 1545 1548 1551 1554 1557 1560 1563 1566 1569 1572 1575 1578 1581 1584 1587 1590 1593 1596 1599 1602 1605 1608 </DataArray>
        <DataArray type="Int8" Name="types" format="ascii">69 69 69 69 69 69 69 69 69 69 69 69 69 69 69 69 69 69 69 69 69 69 69 69 69 69 69 69 69 69 69 69 69 69 69 69 69 69 69 69 69 69 69 69 69 69 69 69 69 69 69 69 69 69 69 69 69 69 69 69 69 69 69 69 69 69 69 69 69 69 69 69 69 69 69 69 69 69 69 69 69 69 69 69 69 69 69 69 69 69 69 69 69 69 69 69 69 69 69 69 69 69 69 69 69 69 69 69 69 69 69 69 69 69 69 69 69 69 69 69 69 69 69 69 69 69 69 69 69 69 69 69 69 69 69 69 69 69 69 69 69 69 69 69 69 69 69 69 69 69 69 69 69 69 69 69 69 69 69 69 69 69 69 69 69 69 69 69 69 69 69 69 69 69 69 69 69 69 69 69 69 69 69 69 69 69 69 69 69 69 69 69 69 69 69 69 69 69 69 69 69 69 69 69 69 69 69 69 69 69 69 69 69 69 69 69 69 69 69 69 69 69 69 69 69 69 69 69 69 69 69 69 69 69 69 69 69 69 69 69 69 69 69 69 69 69 69 69 69 69 69 69 69 69 69 69 69 69 69 69 69 69 69 69 69 69 69 69 69 69 69 69 69 69 69 69 69 69 69 69 69 69 69 69 69 69 69 69 69 69 69 69 69 69 69 69 69 69 69 69 69 69 69 69 69 69 69 69 69 69 69 69 69 69 69 69 69 69 69 69 69 69 69 69 69 69 69 69 69 69 69 69 69 69 69 69 69 69 69 69 69 69 69 69 69 69 69 69 69 69 69 69 69 69 69 69 69 69 69 69 69 69 69 69 69 69 69 69 69 69 69 69 69 69 69 69 69 69 69 69 69 69 69 69 69 69 69 69 69 69 69 69 69 69 69 69 69 69 69 69 69 69 69 69 69 69 69 69 69 69 69 69 69 69 69 69 69 69 69 69 69 69 69 69 69 69 69 69 69 69 69 69 69 69 69 69 69 69 69 69 69 69 69 69 69 69 69 69 69 69 69 69 69 69 69 69 69 69 69 69 69 69 69 69 69 69 69 69 69 69 69 69 69 69 69 69 69 69 69 69 69 69 69 69 69 69 69 69 69 69 69 69 69 69 69 69 69 69 69 69 69 69 69 69 69 69 69 69 69 69 69 69 69 69 69 69 69 69 69 69 69 69 69 69 69 69 69 69 69 69 69 69 69 69 69 69 </DataArray>
      </Cells>
      <CellData Scalars="Stress">
        <DataArray type="UInt8" Name="vtkGhostType" format="ascii" RangeMin="0" RangeMax="1">0 0 0 0 0 0 0 0 0 0 0 0 0 0 0 0 0 0 0 0 0 0 0 0 0 0 0 0 0 0 0 0 0 0 0 0 0 0 0 0 0 0 0 0 0 0 0 0 0 0 0 0 0 0 0 0 0 0 0 0 0 0 0 0 0 0 0 0 0 0 0 0 0 0 0 0 0 0 0 0 0 0 0 0 0 0 0 0 0 0 0 0 0 0 0 0 0 0 0 0 0 0 0 0 0 0 0 0 0 0 0 0 0 0 0 0 0 0 0 0 0 0 0 0 0 0 0 0 0 0 0 0 0 0 0 0 0 0 0 0 0 0 0 0 0 0 0 0 0 0 0 0 0 0 0 0 0 0 0 0 0 0 0 0 0 0 0 0 0 0 0 0 0 0 0 0 0 0 0 0 0 0 0 0 0 0 0 0 0 0 0 0 0 0 0 0 0 0 0 0 0 0 0 0 0 0 0 0 0 0 0 0 0 0 0 0 0 0 0 0 0 0 0 0 0 0 0 0 0 0 0 0 0 0 0 0 0 0 0 0 0 0 0 0 0 0 0 0 0 0 0 0 0 0 0 0 0 0 0 0 0 0 0 0 0 0 0 0 0 0 0 0 0 0 0 0 0 0 0 0 0 0 0 0 0 0 0 0 0 0 0 0 0 0 0 0 0 0 0 0 0 0 0 0 0 0 0 0 0 0 0 0 0 0 0 0 0 0 0 0 0 0 0 0 0 0 0 0 0 0 0 0 0 0 0 0 0 0 0 0 0 0 0 0 0 0 0 0 0 0 0 0 0 0 0 0 0 0 0 0 0 0 0 0 0 0 0 0 0 0 0 0 0 0 0 0 0 0 0 0 0 0 0 0 0 0 0 0 0 0 0 0 0 0 0 0 0 0 0 0 0 0 0 0 0 0 0 0 0 0 0 0 0 0 0 0 0 0 0 0 0 0 0 0 0 0 0 0 0 0 0 0 0 0 0 0 0 0 0 0 0 0 0 0 0 0 0 0 0 0 0 0 0 0 0 0 0 0 0 0 0 0 0 0 0 0 0 0 0 0 0 0 0 0 0 0 0 0 0 0 0 0 0 0 0 0 0 0 0 0 0 0 0 0 0 0 0 0 0 0 0 0 0 0 0 0 0 0 0 0 0 0 0 0 0 0 0 0 0 0 0 0 0 0 0 0 0 0 0 0 0 0 0 0 0 0 </DataArray>
        <DataArray type="Int64" IdType="1" Name="vtkOriginalCellIds" format="ascii" RangeMin="0" RangeMax="535">0 1 2 3 4 5 6 7 8 9 10 11 12 13 14 15 16 17 18 19 20 21 22 23 24 25 26 27 28 29 30 31 32 33 34 35 36 37 38 39 40 41 42 43 44 45 46 47 48 49 50 51 52 53 54 55 56 57 58 59 60 61 62 63 64 65 66 67 68 69 70 71 72 73 74 75 76 77 78 79 80 81 82 83 84 85 86 87 88 89 90 91 92 93 94 95 96 97 98 99 100 101 102 103 104 105 106 107 108 109 110 111 112 113 114 115 116 117 118 119 120 121 122 123 124 125 126 127 128 129 130 131 132 133 134 135 136 137 138 139 140 141 142 143 144 145 146 147 148 149 150 151 152 153 154 155 156 157 158 159 160 161 162 163 164 165 166 167 168 169 170 171 172 173 174 175 176 177 178 179 180 181 182 183 184 185 186 187 188 189 190 191 192 193 194 195 196 197 198 199 200 201 202 203 204 205 206 207 208 209 210 211 212 213 214 215 216 217 218 219 220 221 222 223 224 225 226 227 228 229 230 231 232 233 234 235 236 237 238 239 240 241 242 243 244 245 246 247 248 249 250 251 252 253 254 255 256 257 258 259 260 261 262 263 264 265 266 267 268 269 270 271 272 273 274 275 276 277 278 279 280 281 282 283 284 285 286 287 288 289 290 291 292 293 294 295 296 297 298 299 300 301 302 303 304 305 306 307 308 309 310 311 312 313 314 315 316 317 318 319 320 321 322 323 324 325 326 327 328 329 330 331 332 333 334 335 336 337 338 339 340 341 342 343 344 345 346 347 348 349 350 351 352 353 354 355 356 357 358 359 360 361 362 363 364 365 366 367 368 369 370 371 372 373 374 375 376 377 378 379 380 381 382 383 384 385 386 387 388 389 390 391 392 393 394 395 396 397 398 399 400 401 402 403 404 405 406 407 408 409 410 411 412 413 414 415 416 417 418 419 420 421 422 423 424 425 426 427 428 429 430 431 432 433 434 435 436 437 438 439 440 441 442 443 444 445 446 447 448 449 450 451 452 453 454 455 456 457 458 459 460 461 462 463 464 465 466 467 468 469 470 471 472 473 474 475 476 477 478 479 480 481 482 483 484 485 486 487 488 489 490 491 492 493 494 495 496 497 498 499 500 501 502 503 504 505 506 507 508 509 510 511 512 513 514 515 516 517 518 519 520 521 522 523 524 525 526 527 528 529 530 531 532 533 534 535 </DataArray>
        <DataArray type="Float64" Name="Stress" format="ascii">75.93575373238875 82.21296296913573 70.12653328768559 72.86137364115189 65.39378706062689 71.54525207300512 68.52446317541072 63.84334265211902 69.89070583161249 69.89615778000558 60.58129384217192 64.99311947260347 67.37782611340478 70.45160059757835 69.37823838879551 59.47127713022697 62.75627081570848 65.88729399481161 69.90998491273555 71.77405163630874 57.40997430009427 60.45504758155552 63.28763813390797 66.20076123980971 70.78192339623087 68.16905258041938 74.06813260122044 71.96883937598977 56.72803090317364 58.95956348637193 61.24836769652031 63.30110347600966 69.0423616840657 76.2098556965253 73.81959396275818 55.66290914703793 57.32292854635862 59.19048404626639 60.94549161328676 62.39111457211955 68.7088807807288 65.17291203555298 80.24343047910567 72.09561761568688 55.71182993020808 56.63354001332281 57.60540374772884 58.29492227389566 58.58737869960919 64.16851102607737 59.27421355963003 81.28801439414325 72.55985596169636 55.63539225485773 56.1412721103213 56.69808547379201 57.09252869911242 56.93136784727637 56.6095764663466 68.15995921531727 57.32749429634737 87.03064738502826 77.00565121343695 56.75915427481284 56.55103270128203 56.32573860125946 55.64510405728496 54.15400509825578 52.23348579274495 67.86748403710889 62.02732368878225 51.05360118535836 86.38088810987344 77.61049787687894 57.51367768513865 57.25443837044783 56.67389473223631 55.88717006315938 54.19643497913093 51.62171276329818 48.81991145478957 73.24047075358442 61.07536019836888 47.32056119256074 90.364298528723 82.11093015806129 59.72666871525684 58.4400507684797 57.62102692635924 56.0434579831532 53.19650348713829 49.06780793565895 44.04744443500412 74.45648404953438 68.56170139109166 52.6099938755425 39.29654970576406 87.46548928539477 83.02597039572454 60.77081979876358 61.6249261619037 60.48267478539157 57.55385852572925 54.9150138312698 50.80231161843597 45.25811439512473 38.73364894106561 80.43420788326388 69.82906028506831 48.58894206258024 33.303240299659 36.50036243457408 86.20967234291105 85.94700158214486 64.10337304350026 64.99637247955576 61.42823308294818 59.21983039838111 55.84402777336985 50.83739794560636 43.78282740551828 34.49671049253683 83.06993739632254 58.57018617160681 78.93385148321022 24.43657515301996 25.97210122384844 31.48393043049139 82.42084461839018 88.00803999987465 65.38801972515046 66.49899225085348 66.3627825365956 64.13070312166914 58.64754312582462 54.27815320859428 47.91229079684526 38.90571752158166 26.8564002046644 88.74858996173117 55.37641908808611 82.77271112671635 16.72188161733606 16.50196948819418 74.22060482668489 87.687794757053 70.28122826435296 69.89637239091584 68.98191353646827 64.2423071425486 61.07659489318571 56.10458370331413 50.36641987478645 40.34908051609269 25.65783574234156 91.70867226215626 72.74008455452507 7.197309183295454 24.86229529216018 0.2211425372465563 73.90006287699674 91.67521821217841 75.90446130865971 71.70570597330477 70.3745342685304 69.38718149156561 67.02859791218506 60.06894500865788 55.05666242669144 48.01847415912307 35.63443984971792 16.91253456688868 99.79875537355862 65.31279852313753 -1.554694676634094 62.25982492421482 85.38644840214874 101.2440114324071 82.2118981528112 72.98651694070409 70.09753794347029 71.15013674206666 68.0784875162452 62.32431449185927 59.4617696342863 53.66738164474891 41.42661117229646 23.48025904191869 91.59330580199222 -1.030667331497294 69.01427105943199 90.22101417801696 112.2546452453374 68.67314187866056 69.49450648543026 71.72676724860382 71.21032151327015 66.34801242337014 61.81429246698106 60.47108737779293 51.5493333521561 38.07426258908999 13.16868848507946 107.0494583874771 62.02540005761533 82.75075365121231 105.7808877810344 131.1024154760296 74.07113208215742 73.66070598785872 69.38567555054929 67.86305649394566 67.4516811765552 57.81718618365023 50.11765693931282 32.31183419934928 73.99541501869096 88.77153444493831 117.9481962436086 177.934073917409 76.22194136314208 73.62857977157925 71.07471527495117 71.5123610732437 68.24526666591548 54.43763623908021 30.01102788896975 74.35723193365527 84.25830162874701 104.2518908834258 154.2394862958867 80.60484750617354 77.71097293029052 75.83343365003374 79.02047342236384 76.72144116927241 72.42317089491452 72.85479163502643 82.71690865545153 92.53532458334944 105.2805930381717 176.2932222617262 81.89953471533512 78.54205249972286 79.40692519210589 84.32015061647446 85.36443890888089 84.89398440204931 99.10550094951383 86.22658116251056 87.1957132335897 91.78568980432036 112.9921129348854 128.6129616127465 87.32129950749827 83.12552502269536 83.28245794440089 86.74713650272237 92.2012519046764 96.01868382957817 128.6130380179591 87.59424686751365 89.34631281648802 97.55391015935213 103.7848549079752 99.1054501325218 87.02414862014948 85.79275789152193 89.34640057031316 93.58481731356947 103.784944044333 176.2933112643272 112.9922008095379 90.8336416173541 85.79240347244071 86.74689841464529 93.58471938638293 96.01861691539071 72.8547522035942 90.83409800564293 87.59455468546678 87.19584066673302 97.55399937933051 154.2395761233612 105.2806962041447 87.01668937460521 83.27962224107057 84.31990568569351 92.20111850246732 84.89393589949353 30.01100981641126 86.22676666868865 82.71707292187735 91.7858029806993 177.9341533731665 117.9482964409831 104.2519999707335 92.53544445155509 87.31276927248985 83.1159646338205 79.4022805658751 79.01800469395657 85.36425284429217 72.42312374472894 32.31181772697679 74.35740166962037 131.1024873321582 105.7809953841374 88.77166273024577 84.25843836020464 81.88505512210646 78.52718521919968 75.82266827040992 71.50938165824003 76.7214145606183 54.43760718206827 13.16867838787729 73.99557240777497 107.0494970997859 112.2547381967527 90.22114282241567 82.7508925324471 80.598603527028 77.69275055824536 71.06224248935085 68.24483467346616 67.44483223976519 50.11759627808316 -1.030670924150087 23.48024486001481 62.02556731094756 91.59334920291421 101.2441098519173 85.38658934840264 69.01443043933298 76.21249374662474 73.61262012741818 67.84765519898554 57.81640339004253 60.46271981731763 38.07419534037556 -1.554697160644866 16.91251787575589 65.31282024691365 99.79883132470478 91.67534469904784 73.90022796509011 62.25999680122942 74.06943155486979 73.6473105052735 69.36900113652514 61.80149877146707 51.54852687557492 53.66293682645495 41.42659896061296 0.2211430327514809 7.197301261462648 25.65780838709829 24.8622988821736 72.74011383581646 91.7087475212326 87.68793735236311 74.22078672114135 71.72104901786233 71.20184462535669 66.33106420877681 59.44991926926143 48.01468692968199 35.63441024857136 16.50197161879205 16.72187486134733 26.85637957380816 55.37643429730486 82.77276105178866 88.74868469876724 82.4210202332158 88.00816714771489 69.48141203383889 71.15808027447601 68.0643802531394 62.30925614818015 55.05019976592725 50.36267439616988 40.34894455235214 31.48393450034953 25.97210091684216 24.4365648459166 34.49669200885149 58.5702032082351 78.93390211583545 83.07001362892187 86.20987186711707 85.9471527024336 70.05070112893408 69.40670293899737 67.02978986424723 60.05883108111995 56.10109526171387 47.91206955608061 38.90565282566198 36.50036786836486 33.30323994413186 38.73365579105847 48.58895403355852 69.82909200310137 80.43428845888364 87.46568300582518 83.02609396571725 68.56624871025041 70.43515197861562 69.03836214456059 64.24919925791102 61.06914660366678 54.27740153951267 43.7828106937345 50.83716169821405 39.29656288574434 44.04745462309069 52.61000663222112 68.5617288033454 74.45653163125155 90.36453049339681 82.11107552603336 73.00444314320964 70.03503497624543 66.46536645535767 64.19739192805662 58.64716222714431 55.84379744932895 45.25813004700134 50.80239126367405 47.32059100756396 48.82001319360346 61.07537165290346 73.2405048968773 86.38111102728493 77.61058309806742 82.25440125051583 71.8418677852053 66.60673916536068 65.10804686511968 61.47589407011549 59.22125974657374 54.91519490495847 49.06788375026386 53.19664539915258 51.05372798291477 52.23374217567483 62.02731759161578 67.86748878091119 87.03094565209364 77.00574550291401 75.9442873043371 70.38215113793352 64.16206099869947 61.68841855203958 60.53208501901193 57.55434478129489 56.04366498532196 51.62191383332528 54.19662125776325 57.32760989265615 56.61013780340187 68.16015127735051 81.28827335152117 72.56003673238632 65.44614601710472 60.77842607855577 59.73134090097169 58.43821946281282 57.62081885199585 55.88725462808391 54.15431456979805 55.64525310456237 59.2746294130115 58.58822930620966 64.16897314980528 80.24385325626783 72.09525672883348 57.51451518691941 57.25423697929528 56.67393031068411 56.32578806978711 56.93215713013926 57.09262407548533 62.39272646281506 65.1739927965552 76.20969886752353 73.81877210158167 68.70976356628275 56.75923810060269 56.55111933057332 56.6981329496438 58.29613914199334 57.60523555946289 63.30440993643445 74.06750174431238 71.96394494714077 69.04863555702448 55.63537927592653 56.14134996051533 56.6335265646071 60.94720631073078 59.17695474081546 66.20684176119869 71.7699321226018 70.77807353210714 68.17723628253252 55.71189301256231 57.32183390684799 61.23261043768613 58.94359250591508 65.88576454184562 69.37213424382419 69.90962518340554 55.66299241377541 56.72717043179791 63.26097396780825 60.42154732594269 67.36667594485348 69.93833180929762 70.45705364911522 57.40927438174117 62.7101564887592 59.45689823894808 69.87431806686584 64.97288777162419 68.63085014460798 60.56634480688842 71.53659756917688 63.83400295645686 72.92766158424118 70.13341045795246 65.41227255239613 82.22823479970847 75.93438837522358 </DataArray>
      </CellData>
      <PointData>
        <DataArray type="Int64" IdType="1" Name="vtkOriginalPointIds" format="ascii" RangeMin="0" RangeMax="305">16 1 286 17 225 248 15 18 91 249 98 14 296 19 222 270 178 290 300 13 179 198 20 78 272 176 177 80 12 212 195 21 220 278 174 175 239 166 252 211 194 11 165 22 86 302 161 137 238 127 163 260 94 245 10 155 268 23 228 236 136 129 126 124 162 123 209 262 9 172 154 153 280 24 250 257 138 130 128 125 122 164 120 119 84 133 259 8 159 256 73 25 288 103 224 152 294 131 242 121 77 74 7 205 203 0 277 134 26 63 62 82 230 231 192 305 274 72 105 201 97 61 264 75 27 60 216 217 193 186 144 207 282 147 4 187 71 28 59 88 299 214 145 93 100 148 64 244 70 29 283 92 58 267 101 292 146 266 243 293 65 285 149 5 30 215 143 142 57 206 96 284 89 298 189 66 56 69 200 31 191 188 275 55 135 202 104 218 219 190 76 68 204 32 265 304 6 108 54 255 258 132 83 232 233 118 106 107 85 53 33 241 67 109 157 169 208 52 227 276 150 295 112 281 110 156 263 34 115 111 158 167 51 95 254 151 117 113 269 261 246 35 247 141 116 114 170 168 50 210 289 102 173 139 237 253 196 2 229 235 140 240 171 49 81 36 37 87 160 181 213 197 38 303 180 183 48 199 39 221 279 182 185 301 273 184 47 90 291 40 79 271 234 223 297 46 41 99 251 226 42 45 43 287 44 3 </DataArray>
        <DataArray type="UInt8" Name="vtkGhostType" format="ascii" RangeMin="0" RangeMax="0">0 0 0 0 0 0 0 0 0 0 0 0 0 0 0 0 0 0 0 0 0 0 0 0 0 0 0 0 0 0 0 0 0 0 0 0 0 0 0 0 0 0 0 0 0 0 0 0 0 0 0 0 0 0 0 0 0 0 0 0 0 0 0 0 0 0 0 0 0 0 0 0 0 0 0 0 0 0 0 0 0 0 0 0 0 0 0 0 0 0 0 0 0 0 0 0 0 0 0 0 0 0 0 0 0 0 0 0 0 0 0 0 0 0 0 0 0 0 0 0 0 0 0 0 0 0 0 0 0 0 0 0 0 0 0 0 0 0 0 0 0 0 0 0 0 0 0 0 0 0 0 0 0 0 0 0 0 0 0 0 0 0 0 0 0 0 0 0 0 0 0 0 0 0 0 0 0 0 0 0 0 0 0 0 0 0 0 0 0 0 0 0 0 0 0 0 0 0 0 0 0 0 0 0 0 0 0 0 0 0 0 0 0 0 0 0 0 0 0 0 0 0 0 0 0 0 0 0 0 0 0 0 0 0 0 0 0 0 0 0 0 0 0 0 0 0 0 0 0 0 0 0 0 0 0 0 0 0 0 0 0 0 0 0 0 0 0 0 0 0 0 0 0 0 0 0 0 0 0 0 0 0 0 0 0 0 0 0 0 0 0 0 0 0 0 0 0 0 0 0 0 0 0 0 0 0 </DataArray>
      </PointData>
    </Piece>
  </UnstructuredGrid>
</VTKFile>
